Version identifier: 20.1.0.0 | 2020-11-10 | 9bedb6d68
CPXPARAM_Parallel                                1
CPXPARAM_Simplex_Limits_Iterations               10000000
CPXPARAM_MIP_Interval                            100
CPXPARAM_TimeLimit                               900
CPXPARAM_MIP_Tolerances_AbsMIPGap                0
CPXPARAM_MIP_Tolerances_MIPGap                   0
Tried aggregator 2 times.
MIP Presolve eliminated 216 rows and 216 columns.
MIP Presolve modified 1080 coefficients.
Aggregator did 504 substitutions.
Reduced MIP has 3398 rows, 4682 columns, and 20706 nonzeros.
Reduced MIP has 432 binaries, 0 generals, 0 SOSs, and 0 indicators.
Presolve time = 0.04 sec. (14.96 ticks)
Found incumbent of value 8.7451851e+10 after 0.06 sec. (20.06 ticks)
Probing time = 0.00 sec. (0.69 ticks)
Tried aggregator 1 time.
Detecting symmetries...
Reduced MIP has 3398 rows, 4682 columns, and 20706 nonzeros.
Reduced MIP has 858 binaries, 0 generals, 0 SOSs, and 0 indicators.
Presolve time = 0.02 sec. (10.17 ticks)
Probing time = 0.00 sec. (0.96 ticks)
MIP emphasis: balance optimality and feasibility.
MIP search method: dynamic search.
Parallel mode: deterministic, using up to 2 threads.
Root relaxation solution time = 0.08 sec. (38.88 ticks)

        Nodes                                         Cuts/
   Node  Left     Objective  IInf  Best Integer    Best Bound    ItCnt     Gap

*     0+    0                       8.74519e+10 -1689359.6667           100.00%
      0     0  -771204.4963   330   8.74519e+10  -771204.4963     1708  100.00%
*     0+    0                      -763850.7278  -771204.4963             0.96%
*     0+    0                      -763850.7278  -771204.4963             0.96%
      0     0  -766823.5838    97  -763850.7278     Cuts: 949     2386    0.39%
*     0+    0                      -766144.3341  -766823.5838             0.09%
      0     0  -766414.7110    24  -766144.3341     Cuts: 340     2595    0.04%
*     0+    0                      -766371.0595  -766414.7110             0.01%
      0     0  -766376.1856     4  -766371.0595      Cuts: 14     2605    0.00%
Detecting symmetries...
      0     2  -766376.1856     4  -766371.0595  -766376.1856     2605    0.00%
Elapsed time = 0.86 sec. (442.34 ticks, tree = 0.02 MB, solutions = 6)

Implied bound cuts applied:  669
Flow cuts applied:  216
Mixed integer rounding cuts applied:  191
Lift and project cuts applied:  6
Gomory fractional cuts applied:  33

Root node processing (before b&c):
  Real time             =    0.85 sec. (440.31 ticks)
Parallel b&c, 2 threads:
  Real time             =    0.07 sec. (55.47 ticks)
  Sync time (average)   =    0.03 sec.
  Wait time (average)   =    0.00 sec.
                          ------------
Total (root+branch&cut) =    0.92 sec. (495.79 ticks)

Optimal integer solution found
Solution value = 0.000000

CPLEX Error  1217: No solution exists.
Simplex iterations = 0


Version identifier: 20.1.0.0 | 2020-11-10 | 9bedb6d68
CPXPARAM_Parallel                                1
CPXPARAM_Simplex_Limits_Iterations               10000000
CPXPARAM_MIP_Interval                            100
CPXPARAM_TimeLimit                               900
CPXPARAM_MIP_Tolerances_AbsMIPGap                0
CPXPARAM_MIP_Tolerances_MIPGap                   0
Problem is feasible; no conflict available.
Version identifier: 20.1.0.0 | 2020-11-10 | 9bedb6d68
CPXPARAM_Parallel                                1
CPXPARAM_Simplex_Limits_Iterations               10000000
CPXPARAM_MIP_Interval                            100
CPXPARAM_TimeLimit                               900
CPXPARAM_MIP_Tolerances_AbsMIPGap                0
CPXPARAM_MIP_Tolerances_MIPGap                   0
Tried aggregator 2 times.
MIP Presolve eliminated 245 rows and 178 columns.
MIP Presolve modified 987 coefficients.
Aggregator did 767 substitutions.
Reduced MIP has 3532 rows, 5246 columns, and 22659 nonzeros.
Reduced MIP has 432 binaries, 0 generals, 0 SOSs, and 0 indicators.
Presolve time = 0.02 sec. (15.51 ticks)
Found incumbent of value 2.8056291e+10 after 0.02 sec. (21.34 ticks)
Probing time = 0.00 sec. (0.78 ticks)
Tried aggregator 1 time.
Detecting symmetries...
Reduced MIP has 3532 rows, 5246 columns, and 22659 nonzeros.
Reduced MIP has 858 binaries, 0 generals, 0 SOSs, and 0 indicators.
Presolve time = 0.01 sec. (10.57 ticks)
Probing time = 0.00 sec. (1.07 ticks)
MIP emphasis: balance optimality and feasibility.
MIP search method: dynamic search.
Parallel mode: deterministic, using up to 2 threads.
Root relaxation solution time = 0.06 sec. (44.05 ticks)

        Nodes                                         Cuts/
   Node  Left     Objective  IInf  Best Integer    Best Bound    ItCnt     Gap

*     0+    0                       2.80563e+10  -2.33075e+07           100.08%
      0     0 -1162897.5060   175   2.80563e+10 -1162897.5060     2273  100.00%
*     0+    0                     -1156612.9486 -1162897.5060             0.54%
      0     0 -1158006.4195    82 -1156612.9486     Cuts: 757     2820    0.12%
*     0+    0                     -1157577.0234 -1158006.4195             0.04%
      0     0 -1157752.0300    32 -1157577.0234     Cuts: 215     2954    0.02%
*     0+    0                     -1157702.7981 -1157752.0300             0.00%
      0     0 -1157703.2984     4 -1157702.7981      Cuts: 25     2966    0.00%
Detecting symmetries...

Repeating presolve.
Tried aggregator 4 times.
MIP Presolve eliminated 2849 rows and 3623 columns.
MIP Presolve modified 153 coefficients.
Aggregator did 290 substitutions.
Reduced MIP has 393 rows, 1330 columns, and 4357 nonzeros.
Reduced MIP has 32 binaries, 0 generals, 0 SOSs, and 0 indicators.
Presolve time = 0.01 sec. (11.30 ticks)
Probing fixed 0 vars, tightened 47 bounds.
Probing time = 0.00 sec. (2.29 ticks)
Tried aggregator 1 time.
Detecting symmetries...
MIP Presolve modified 26 coefficients.
Reduced MIP has 393 rows, 1330 columns, and 4357 nonzeros.
Reduced MIP has 32 binaries, 0 generals, 0 SOSs, and 0 indicators.
Presolve time = 0.00 sec. (1.94 ticks)
Represolve time = 0.02 sec. (30.69 ticks)
Probing time = 0.00 sec. (1.80 ticks)
Clique table members: 26.
MIP emphasis: balance optimality and feasibility.
MIP search method: dynamic search.
Parallel mode: deterministic, using up to 2 threads.
Root relaxation solution time = 0.01 sec. (3.29 ticks)

        Nodes                                         Cuts/
   Node  Left     Objective  IInf  Best Integer    Best Bound    ItCnt     Gap

*     0+    0                     -1157702.7981 -1157703.2984             0.00%
      0     0 -1157703.1434     1 -1157702.7981 -1157703.1434     3211    0.00%
      0     0        cutoff       -1157702.7981                   3211    0.00%
Elapsed time = 0.57 sec. (350.33 ticks, tree = 0.01 MB, solutions = 6)

Implied bound cuts applied:  68
Flow cuts applied:  6
Mixed integer rounding cuts applied:  61
Lift and project cuts applied:  5
Gomory fractional cuts applied:  18

Root node processing (before b&c):
  Real time             =    0.58 sec. (350.73 ticks)
Parallel b&c, 2 threads:
  Real time             =    0.00 sec. (0.00 ticks)
  Sync time (average)   =    0.00 sec.
  Wait time (average)   =    0.00 sec.
                          ------------
Total (root+branch&cut) =    0.58 sec. (350.73 ticks)

Optimal integer solution found
Solution value = 0.000000

CPLEX Error  1217: No solution exists.
Simplex iterations = 0


Version identifier: 20.1.0.0 | 2020-11-10 | 9bedb6d68
CPXPARAM_Parallel                                1
CPXPARAM_Simplex_Limits_Iterations               10000000
CPXPARAM_MIP_Interval                            100
CPXPARAM_TimeLimit                               900
CPXPARAM_MIP_Tolerances_AbsMIPGap                0
CPXPARAM_MIP_Tolerances_MIPGap                   0
Problem is feasible; no conflict available.
Version identifier: 20.1.0.0 | 2020-11-10 | 9bedb6d68
CPXPARAM_Parallel                                1
CPXPARAM_Simplex_Limits_Iterations               10000000
CPXPARAM_MIP_Interval                            100
CPXPARAM_TimeLimit                               900
CPXPARAM_MIP_Tolerances_AbsMIPGap                0
CPXPARAM_MIP_Tolerances_MIPGap                   0
Tried aggregator 2 times.
MIP Presolve eliminated 445 rows and 388 columns.
MIP Presolve modified 1080 coefficients.
Aggregator did 617 substitutions.
Reduced MIP has 3512 rows, 4813 columns, and 20946 nonzeros.
Reduced MIP has 432 binaries, 0 generals, 0 SOSs, and 0 indicators.
Presolve time = 0.02 sec. (14.83 ticks)
Found incumbent of value 5.8961892e+10 after 0.02 sec. (20.26 ticks)
Probing time = 0.00 sec. (0.73 ticks)
Tried aggregator 1 time.
Detecting symmetries...
Reduced MIP has 3512 rows, 4813 columns, and 20946 nonzeros.
Reduced MIP has 858 binaries, 0 generals, 0 SOSs, and 0 indicators.
Presolve time = 0.01 sec. (10.13 ticks)
Probing time = 0.00 sec. (1.02 ticks)
MIP emphasis: balance optimality and feasibility.
MIP search method: dynamic search.
Parallel mode: deterministic, using up to 2 threads.
Root relaxation solution time = 0.07 sec. (50.76 ticks)

        Nodes                                         Cuts/
   Node  Left     Objective  IInf  Best Integer    Best Bound    ItCnt     Gap

*     0+    0                       5.89619e+10  -2.03569e+07           100.03%
      0     0  -682774.1115   302   5.89619e+10  -682774.1115     2262  100.00%
*     0+    0                      -675494.4868  -682774.1115             1.08%
      0     0  -678325.0128   130  -675494.4868     Cuts: 978     2964    0.42%
*     0+    0                      -677243.3534  -678325.0128             0.16%
      0     0  -677794.6746    64  -677243.3534     Cuts: 470     3314    0.08%
*     0+    0                      -677711.2487  -677794.6746             0.01%
      0     0  -677750.5083     6  -677711.2487      Cuts: 53     3343    0.01%
*     0+    0                      -677723.9532  -677750.5083             0.00%
*     0+    0                      -677735.1991  -677750.5083             0.00%
Detecting symmetries...
      0     2  -677750.5083     6  -677735.1991  -677750.5083     3343    0.00%
Elapsed time = 1.16 sec. (702.23 ticks, tree = 0.02 MB, solutions = 8)
*     5     1      integral     0  -677735.5054  -677741.0820     3445    0.00%

Implied bound cuts applied:  714
Flow cuts applied:  192
Mixed integer rounding cuts applied:  222
Lift and project cuts applied:  11
Gomory fractional cuts applied:  28

Root node processing (before b&c):
  Real time             =    1.16 sec. (699.82 ticks)
Parallel b&c, 2 threads:
  Real time             =    0.06 sec. (53.36 ticks)
  Sync time (average)   =    0.02 sec.
  Wait time (average)   =    0.00 sec.
                          ------------
Total (root+branch&cut) =    1.22 sec. (753.18 ticks)

Optimal integer solution found
Solution value = 0.000000

CPLEX Error  1217: No solution exists.
Simplex iterations = 0


Version identifier: 20.1.0.0 | 2020-11-10 | 9bedb6d68
CPXPARAM_Parallel                                1
CPXPARAM_Simplex_Limits_Iterations               10000000
CPXPARAM_MIP_Interval                            100
CPXPARAM_TimeLimit                               900
CPXPARAM_MIP_Tolerances_AbsMIPGap                0
CPXPARAM_MIP_Tolerances_MIPGap                   0
Problem is feasible; no conflict available.
Version identifier: 20.1.0.0 | 2020-11-10 | 9bedb6d68
CPXPARAM_Parallel                                1
CPXPARAM_Simplex_Limits_Iterations               10000000
CPXPARAM_MIP_Interval                            100
CPXPARAM_TimeLimit                               900
CPXPARAM_MIP_Tolerances_AbsMIPGap                0
CPXPARAM_MIP_Tolerances_MIPGap                   0
Tried aggregator 2 times.
MIP Presolve eliminated 256 rows and 185 columns.
MIP Presolve modified 966 coefficients.
Aggregator did 748 substitutions.
Reduced MIP has 3540 rows, 5273 columns, and 22730 nonzeros.
Reduced MIP has 432 binaries, 0 generals, 0 SOSs, and 0 indicators.
Presolve time = 0.02 sec. (15.48 ticks)
Found incumbent of value 3.0046360e+10 after 0.02 sec. (21.34 ticks)
Probing time = 0.00 sec. (0.79 ticks)
Tried aggregator 1 time.
Detecting symmetries...
Reduced MIP has 3540 rows, 5273 columns, and 22730 nonzeros.
Reduced MIP has 858 binaries, 0 generals, 0 SOSs, and 0 indicators.
Presolve time = 0.01 sec. (10.58 ticks)
Probing time = 0.00 sec. (1.09 ticks)
MIP emphasis: balance optimality and feasibility.
MIP search method: dynamic search.
Parallel mode: deterministic, using up to 2 threads.
Root relaxation solution time = 0.05 sec. (42.40 ticks)

        Nodes                                         Cuts/
   Node  Left     Objective  IInf  Best Integer    Best Bound    ItCnt     Gap

*     0+    0                       3.00464e+10  -2.41503e+07           100.08%
      0     0 -1103795.0347   188   3.00464e+10 -1103795.0347     2199  100.00%
*     0+    0                     -1098321.9890 -1103795.0347             0.50%
      0     0 -1099871.9948    50 -1098321.9890     Cuts: 759     2641    0.14%
*     0+    0                     -1099486.4734 -1099871.9948             0.04%
      0     0 -1099562.0724    25 -1099486.4734     Cuts: 151     2781    0.01%
*     0+    0                     -1099533.2063 -1099562.0724             0.00%
      0     0 -1099540.0619    12 -1099533.2063      Cuts: 42     2798    0.00%
Detecting symmetries...

Repeating presolve.
Tried aggregator 4 times.
MIP Presolve eliminated 2849 rows and 3559 columns.
MIP Presolve modified 96 coefficients.
Aggregator did 300 substitutions.
Reduced MIP has 391 rows, 1411 columns, and 4529 nonzeros.
Reduced MIP has 23 binaries, 0 generals, 0 SOSs, and 0 indicators.
Presolve time = 0.01 sec. (11.73 ticks)
Probing fixed 0 vars, tightened 36 bounds.
Probing time = 0.00 sec. (2.12 ticks)
Tried aggregator 1 time.
Detecting symmetries...
MIP Presolve modified 19 coefficients.
Reduced MIP has 391 rows, 1411 columns, and 4529 nonzeros.
Reduced MIP has 23 binaries, 0 generals, 0 SOSs, and 0 indicators.
Presolve time = 0.00 sec. (1.95 ticks)
Represolve time = 0.02 sec. (30.51 ticks)
Probing time = 0.00 sec. (1.59 ticks)
Clique table members: 31.
MIP emphasis: balance optimality and feasibility.
MIP search method: dynamic search.
Parallel mode: deterministic, using up to 2 threads.
Root relaxation solution time = 0.01 sec. (3.83 ticks)

        Nodes                                         Cuts/
   Node  Left     Objective  IInf  Best Integer    Best Bound    ItCnt     Gap

*     0+    0                     -1099533.2063 -1099540.0619             0.00%
      0     0 -1099539.4985     7 -1099533.2063 -1099539.4985     3061    0.00%
      0     0        cutoff       -1099533.2063 -1099533.2063     3070    0.00%
Elapsed time = 0.57 sec. (350.87 ticks, tree = 0.01 MB, solutions = 7)

Implied bound cuts applied:  50
Flow cuts applied:  9
Mixed integer rounding cuts applied:  43
Lift and project cuts applied:  3
Gomory fractional cuts applied:  11

Root node processing (before b&c):
  Real time             =    0.57 sec. (351.35 ticks)
Parallel b&c, 2 threads:
  Real time             =    0.00 sec. (0.00 ticks)
  Sync time (average)   =    0.00 sec.
  Wait time (average)   =    0.00 sec.
                          ------------
Total (root+branch&cut) =    0.57 sec. (351.35 ticks)

Optimal integer solution found
Solution value = 0.000000

CPLEX Error  1217: No solution exists.
Simplex iterations = 0


Version identifier: 20.1.0.0 | 2020-11-10 | 9bedb6d68
CPXPARAM_Parallel                                1
CPXPARAM_Simplex_Limits_Iterations               10000000
CPXPARAM_MIP_Interval                            100
CPXPARAM_TimeLimit                               900
CPXPARAM_MIP_Tolerances_AbsMIPGap                0
CPXPARAM_MIP_Tolerances_MIPGap                   0
Problem is feasible; no conflict available.
Version identifier: 20.1.0.0 | 2020-11-10 | 9bedb6d68
CPXPARAM_Parallel                                1
CPXPARAM_Simplex_Limits_Iterations               10000000
CPXPARAM_MIP_Interval                            100
CPXPARAM_TimeLimit                               900
CPXPARAM_MIP_Tolerances_AbsMIPGap                0
CPXPARAM_MIP_Tolerances_MIPGap                   0
Tried aggregator 2 times.
MIP Presolve eliminated 436 rows and 372 columns.
MIP Presolve modified 1064 coefficients.
Aggregator did 634 substitutions.
Reduced MIP has 3526 rows, 4817 columns, and 20926 nonzeros.
Reduced MIP has 432 binaries, 0 generals, 0 SOSs, and 0 indicators.
Presolve time = 0.02 sec. (14.81 ticks)
Found incumbent of value 5.6886825e+10 after 0.02 sec. (20.46 ticks)
Probing time = 0.00 sec. (0.73 ticks)
Tried aggregator 1 time.
Detecting symmetries...
Reduced MIP has 3526 rows, 4817 columns, and 20926 nonzeros.
Reduced MIP has 858 binaries, 0 generals, 0 SOSs, and 0 indicators.
Presolve time = 0.01 sec. (10.18 ticks)
Probing time = 0.00 sec. (1.02 ticks)
MIP emphasis: balance optimality and feasibility.
MIP search method: dynamic search.
Parallel mode: deterministic, using up to 2 threads.
Root relaxation solution time = 0.09 sec. (56.29 ticks)

        Nodes                                         Cuts/
   Node  Left     Objective  IInf  Best Integer    Best Bound    ItCnt     Gap

*     0+    0                       5.68868e+10  -2.21581e+07           100.04%
      0     0  -747632.0862   286   5.68868e+10  -747632.0862     2331  100.00%
*     0+    0                      -739923.6288  -747632.0862             1.04%
      0     0  -742932.6604   131  -739923.6288     Cuts: 981     3108    0.41%
*     0+    0                      -741511.2991  -742932.6604             0.19%
*     0+    0                      -741605.6825  -742932.6604             0.18%
      0     0  -742210.4189    98  -741605.6825     Cuts: 457     3488    0.08%
*     0+    0                      -742144.4593  -742210.4189             0.01%
      0     0  -742153.8971     5  -742144.4593      Cuts: 91     3515    0.00%
*     0+    0                      -742148.8844  -742153.8971             0.00%
      0     0  -742151.4968     5  -742148.8844       Cuts: 5     3518    0.00%
Detecting symmetries...

Repeating presolve.
Tried aggregator 4 times.
MIP Presolve eliminated 2423 rows and 1891 columns.
MIP Presolve modified 213 coefficients.
Aggregator did 425 substitutions.
Reduced MIP has 678 rows, 2499 columns, and 6766 nonzeros.
Reduced MIP has 49 binaries, 0 generals, 0 SOSs, and 0 indicators.
Presolve time = 0.02 sec. (17.22 ticks)
Probing fixed 0 vars, tightened 74 bounds.
Probing time = 0.00 sec. (2.16 ticks)
Tried aggregator 1 time.
Detecting symmetries...
MIP Presolve modified 42 coefficients.
Reduced MIP has 678 rows, 2499 columns, and 6766 nonzeros.
Reduced MIP has 49 binaries, 0 generals, 0 SOSs, and 0 indicators.
Presolve time = 0.00 sec. (3.26 ticks)
Represolve time = 0.03 sec. (37.05 ticks)
Probing fixed 0 vars, tightened 1 bounds.
Probing time = 0.00 sec. (1.78 ticks)
Clique table members: 71.
MIP emphasis: balance optimality and feasibility.
MIP search method: dynamic search.
Parallel mode: deterministic, using up to 2 threads.
Root relaxation solution time = 0.01 sec. (8.95 ticks)

        Nodes                                         Cuts/
   Node  Left     Objective  IInf  Best Integer    Best Bound    ItCnt     Gap

*     0+    0                      -742148.8844  -742151.4968             0.00%
      0     0  -742150.8585     5  -742148.8844  -742150.8585     3993    0.00%
*     0+    0                      -742150.3827  -742150.8585             0.00%
      0     0        cutoff        -742150.3827  -742150.3827     3994    0.00%
Elapsed time = 1.10 sec. (685.40 ticks, tree = 0.01 MB, solutions = 13)

Implied bound cuts applied:  137
Flow cuts applied:  9
Mixed integer rounding cuts applied:  142
Lift and project cuts applied:  7
Gomory fractional cuts applied:  26

Root node processing (before b&c):
  Real time             =    1.10 sec. (686.09 ticks)
Parallel b&c, 2 threads:
  Real time             =    0.00 sec. (0.00 ticks)
  Sync time (average)   =    0.00 sec.
  Wait time (average)   =    0.00 sec.
                          ------------
Total (root+branch&cut) =    1.10 sec. (686.09 ticks)

Optimal integer solution found
Solution value = 0.000000

CPLEX Error  1217: No solution exists.
Simplex iterations = 0


Version identifier: 20.1.0.0 | 2020-11-10 | 9bedb6d68
CPXPARAM_Parallel                                1
CPXPARAM_Simplex_Limits_Iterations               10000000
CPXPARAM_MIP_Interval                            100
CPXPARAM_TimeLimit                               900
CPXPARAM_MIP_Tolerances_AbsMIPGap                0
CPXPARAM_MIP_Tolerances_MIPGap                   0
Problem is feasible; no conflict available.
Version identifier: 20.1.0.0 | 2020-11-10 | 9bedb6d68
CPXPARAM_Parallel                                1
CPXPARAM_Simplex_Limits_Iterations               10000000
CPXPARAM_MIP_Interval                            100
CPXPARAM_TimeLimit                               900
CPXPARAM_MIP_Tolerances_AbsMIPGap                0
CPXPARAM_MIP_Tolerances_MIPGap                   0
Tried aggregator 1 time.
LP Presolve eliminated 1463 rows and 575 columns.
Aggregator did 315 substitutions.
Reduced LP has 804 rows, 3218 columns, and 9265 nonzeros.
Presolve time = 0.00 sec. (3.27 ticks)
Initializing dual steep norms . . .

Iteration log . . .
Iteration:     1   Scaled dual infeas =          6144.000000
Iteration:     3   Dual objective     =      -1809451.965186
Iteration:   105   Dual objective     =      -1748919.754817
Iteration:   219   Dual objective     =      -1347000.679360
Iteration:   369   Dual objective     =      -1088417.808619
Iteration:   458   Dual objective     =      -1040201.171745

Optimal solution is available
Solution value = 0.000000

Simplex iterations = 514


Version identifier: 20.1.0.0 | 2020-11-10 | 9bedb6d68
CPXPARAM_Parallel                                1
CPXPARAM_Simplex_Limits_Iterations               10000000
CPXPARAM_MIP_Interval                            100
CPXPARAM_TimeLimit                               900
CPXPARAM_MIP_Tolerances_AbsMIPGap                0
CPXPARAM_MIP_Tolerances_MIPGap                   0
Problem is feasible; no conflict available.
Version identifier: 20.1.0.0 | 2020-11-10 | 9bedb6d68
CPXPARAM_Parallel                                1
CPXPARAM_Simplex_Limits_Iterations               10000000
CPXPARAM_MIP_Interval                            100
CPXPARAM_TimeLimit                               900
CPXPARAM_MIP_Tolerances_AbsMIPGap                0
CPXPARAM_MIP_Tolerances_MIPGap                   0
Tried aggregator 1 time.
LP Presolve eliminated 1463 rows and 575 columns.
Aggregator did 315 substitutions.
Reduced LP has 804 rows, 3189 columns, and 9156 nonzeros.
Presolve time = 0.00 sec. (3.25 ticks)
Initializing dual steep norms . . .

Iteration log . . .
Iteration:     1   Scaled dual infeas =          6144.000000
Iteration:     3   Dual objective     =      -1635804.756333
Iteration:   136   Dual objective     =      -1484198.695032
Iteration:   292   Dual objective     =      -1069108.192125
Iteration:   412   Dual objective     =       -918967.444114
Iteration:   505   Dual objective     =       -867128.851909

Optimal solution is available
Solution value = 0.000000

Simplex iterations = 506


Version identifier: 20.1.0.0 | 2020-11-10 | 9bedb6d68
CPXPARAM_Parallel                                1
CPXPARAM_Simplex_Limits_Iterations               10000000
CPXPARAM_MIP_Interval                            100
CPXPARAM_TimeLimit                               900
CPXPARAM_MIP_Tolerances_AbsMIPGap                0
CPXPARAM_MIP_Tolerances_MIPGap                   0
Problem is feasible; no conflict available.
Version identifier: 20.1.0.0 | 2020-11-10 | 9bedb6d68
CPXPARAM_Parallel                                1
CPXPARAM_Simplex_Limits_Iterations               10000000
CPXPARAM_MIP_Interval                            100
CPXPARAM_TimeLimit                               900
CPXPARAM_MIP_Tolerances_AbsMIPGap                0
CPXPARAM_MIP_Tolerances_MIPGap                   0
Tried aggregator 1 time.
LP Presolve eliminated 1463 rows and 575 columns.
Aggregator did 315 substitutions.
Reduced LP has 804 rows, 3030 columns, and 8676 nonzeros.
Presolve time = 0.00 sec. (3.79 ticks)
Initializing dual steep norms . . .

Iteration log . . .
Iteration:     1   Scaled dual infeas =          6144.000000
Iteration:     3   Dual objective     =      -1630487.451208
Iteration:   120   Dual objective     =      -1501077.480008
Iteration:   268   Dual objective     =      -1119899.083686
Iteration:   400   Dual objective     =       -914877.197358
Iteration:   510   Dual objective     =       -863838.200303

Optimal solution is available
Solution value = 0.000000

Simplex iterations = 525


Version identifier: 20.1.0.0 | 2020-11-10 | 9bedb6d68
CPXPARAM_Parallel                                1
CPXPARAM_Simplex_Limits_Iterations               10000000
CPXPARAM_MIP_Interval                            100
CPXPARAM_TimeLimit                               900
CPXPARAM_MIP_Tolerances_AbsMIPGap                0
CPXPARAM_MIP_Tolerances_MIPGap                   0
Problem is feasible; no conflict available.
